NAME : XML100_3126_23
DIMENSION : 101
NB_CLUSTERS : 28
CLUSTERING_ALG : KMeans
CLUSTERING_PARAMS : k(27)
CLUSTERS
1 0
2 23 49 61 62
3 16 40 42 65 83 88
4 3 50 68 75 80
5 9 29 44 55 84
6 7 15 51 78 79 82
7 24 35 52 58 87 92
8 5 18 21 60 77
9 12 59 66 90
10 11 34
11 4 28 57 67 96
12 10 43 95
13 1 8
14 30 33 37 73
15 36 48 70 91
16 39 64 76
17 27 54 74
18 38 45 93
19 71 100
20 26 98
21 22 47 56 63 69
22 2 13 32
23 14 17 41
24 25 46
25 6 72 94 97 99
26 19 20 81
27 85 86
28 31 53 89
EOF